
******************************************************************************
This program contains Ipopt, a library for large-scale nonlinear optimization.
 Ipopt is released as open source code under the Eclipse Public License (EPL).
         For more information visit http://projects.coin-or.org/Ipopt
******************************************************************************

This is Ipopt version 3.12.6, running with linear solver ma57.

Number of nonzeros in equality constraint Jacobian...:        0
Number of nonzeros in inequality constraint Jacobian.:        0
Number of nonzeros in Lagrangian Hessian.............:        6

Total number of variables............................:        3
                     variables with only lower bounds:        2
                variables with lower and upper bounds:        0
                     variables with only upper bounds:        0
Total number of equality constraints.................:        0
Total number of inequality constraints...............:        0
        inequality constraints with only lower bounds:        0
   inequality constraints with lower and upper bounds:        0
        inequality constraints with only upper bounds:        0

iter    objective    inf_pr   inf_du lg(mu)  ||d||  lg(rg) alpha_du alpha_pr  ls
   0  1.1314860e+02 0.00e+00 9.96e+01  -1.0 0.00e+00    -  0.00e+00 0.00e+00   0
   1  1.1247960e+02 0.00e+00 4.65e+01  -1.0 7.75e-03   4.0 1.00e+00 1.00e+00f  1
   2  1.1234837e+02 0.00e+00 4.74e+00  -1.0 1.88e-03   3.5 1.00e+00 1.00e+00f  1
   3  1.1233854e+02 0.00e+00 1.18e+00  -1.0 1.04e-03   3.0 1.00e+00 1.00e+00f  1
   4  1.1232615e+02 0.00e+00 4.60e+01  -1.0 1.43e+01    -  6.91e-01 2.50e-01f  3
   5  1.1228129e+02 0.00e+00 6.86e+00  -1.0 4.48e+00    -  1.00e+00 1.00e+00f  1
   6  1.1226801e+02 0.00e+00 3.01e+01  -1.0 2.19e+01    -  6.80e-01 2.50e-01f  3
   7  1.1235221e+02 0.00e+00 9.01e+01  -1.0 1.96e+01    -  1.00e+00 1.00e+00f  1
   8  1.1229512e+02 0.00e+00 8.42e+01  -1.0 7.29e+00    -  1.00e+00 1.00e+00f  1
   9  1.1225093e+02 0.00e+00 5.48e-01  -1.0 1.63e-03   2.6 1.00e+00 1.00e+00f  1
iter    objective    inf_pr   inf_du lg(mu)  ||d||  lg(rg) alpha_du alpha_pr  ls
  10  1.1223860e+02 0.00e+00 2.06e+01  -1.7 1.19e+01    -  9.56e-01 5.00e-01f  2
  11  1.1223693e+02 0.00e+00 4.36e+01  -1.7 1.67e+01    -  1.00e+00 1.00e+00f  1
  12  1.1222945e+02 0.00e+00 2.90e+00  -1.7 9.58e+00    -  1.00e+00 1.00e+00f  1
  13  1.1223565e+02 0.00e+00 6.43e+01  -1.7 5.80e+01    -  1.00e+00 5.00e-01f  2
  14  1.1222717e+02 0.00e+00 3.31e-01  -1.7 1.56e+01    -  1.00e+00 1.00e+00f  1
  15  1.1222763e+02 0.00e+00 2.77e+01  -1.7 1.09e+02    -  1.00e+00 2.50e-01f  3
  16  1.1223369e+02 0.00e+00 6.80e+01  -1.7 5.92e+01    -  1.00e+00 1.00e+00f  1
  17  1.1222673e+02 0.00e+00 1.61e+00  -1.7 2.86e+01    -  1.00e+00 1.00e+00f  1
  18  1.1222755e+02 0.00e+00 3.40e+01  -1.7 2.16e+02    -  1.00e+00 2.50e-01f  3
  19  1.1223138e+02 0.00e+00 6.52e+01  -1.7 1.04e+02    -  1.00e+00 1.00e+00f  1
iter    objective    inf_pr   inf_du lg(mu)  ||d||  lg(rg) alpha_du alpha_pr  ls
  20  1.1222664e+02 0.00e+00 9.15e+00  -1.7 6.27e+01    -  1.00e+00 1.00e+00f  1
  21  1.1222992e+02 0.00e+00 6.42e+01  -1.7 2.76e+02    -  1.00e+00 5.00e-01f  2
  22  1.1222670e+02 0.00e+00 2.12e+01  -1.7 1.20e+02    -  1.00e+00 1.00e+00f  1
  23  1.1223367e+02 0.00e+00 9.80e+01  -1.7 2.78e+02    -  1.00e+00 1.00e+00f  1
  24  1.1222611e+02 0.00e+00 2.88e+00  -1.7 1.43e+02    -  1.00e+00 1.00e+00f  1
  25  1.1223531e+02 0.00e+00 1.22e+02  -1.7 9.18e+02    -  1.00e+00 5.00e-01f  2
  26  1.1222562e+02 0.00e+00 1.10e+00  -1.7 2.27e+02    -  1.00e+00 1.00e+00f  1
  27  1.1222648e+02 0.00e+00 4.80e+01  -1.7 1.68e+03    -  9.81e-01 2.50e-01f  3
  28  1.1223351e+02 0.00e+00 1.17e+02  -1.7 9.05e+02    -  1.00e+00 1.00e+00f  1
  29  1.1222598e+02 0.00e+00 6.10e-01  -1.7 4.09e+02    -  1.00e+00 1.00e+00f  1
iter    objective    inf_pr   inf_du lg(mu)  ||d||  lg(rg) alpha_du alpha_pr  ls
  30  1.1222719e+02 0.00e+00 5.98e+01  -1.7 3.48e+03    -  1.00e+00 2.50e-01f  3
  31  1.1222963e+02 0.00e+00 9.00e+01  -1.7 1.46e+03    -  1.00e+00 1.00e+00f  1
  32  1.1222620e+02 0.00e+00 2.07e+01  -1.7 9.92e+02    -  1.00e+00 1.00e+00f  1
  33  1.1222776e+02 0.00e+00 7.05e+01  -1.7 3.34e+03    -  1.00e+00 5.00e-01f  2
  34  1.1222701e+02 0.00e+00 5.40e+01  -1.7 2.05e+03    -  1.00e+00 1.00e+00f  1
  35  1.1222749e+02 0.00e+00 6.86e+01  -1.7 2.76e+03    -  1.00e+00 1.00e+00f  1
  36  1.1222674e+02 0.00e+00 5.20e+01  -1.7 3.01e+03    -  1.00e+00 1.00e+00f  1
  37  1.1222752e+02 0.00e+00 7.61e+01  -1.7 4.33e+03    -  1.00e+00 1.00e+00f  1
  38  1.1222624e+02 0.00e+00 4.19e+01  -1.7 4.09e+03    -  1.00e+00 1.00e+00f  1
  39  1.1222783e+02 0.00e+00 9.16e+01  -1.7 6.95e+03    -  1.00e+00 1.00e+00f  1
iter    objective    inf_pr   inf_du lg(mu)  ||d||  lg(rg) alpha_du alpha_pr  ls
  40  1.1222570e+02 0.00e+00 2.41e+01  -1.7 4.86e+03    -  1.00e+00 1.00e+00f  1
  41  1.1222906e+02 0.00e+00 1.26e+02  -1.7 1.17e+04    -  1.00e+00 1.00e+00f  1
  42  1.1222523e+02 0.00e+00 1.22e+00  -1.7 4.45e+03    -  1.00e+00 1.00e+00f  1
  43  1.1222569e+02 0.00e+00 6.04e+01  -1.7 2.13e+04    -  1.00e+00 5.00e-01f  2
  44  1.1222507e+02 0.00e+00 1.79e+01  -1.7 7.47e+03    -  1.00e+00 1.00e+00f  1
  45  1.1222504e+02 0.00e+00 3.12e+01  -1.7 1.01e+04    -  1.00e+00 1.00e+00f  1
  46  1.1222482e+02 0.00e+00 5.54e+00  -1.7 5.02e+03    -  1.00e+00 1.00e+00f  1
  47  1.1222472e+02 0.00e+00 5.75e+00  -1.7 4.99e+03    -  1.00e+00 1.00e+00f  1
  48  1.1222469e+02 0.00e+00 2.38e-01  -1.7 1.11e+03    -  1.00e+00 1.00e+00f  1
  49  1.1222469e+02 0.00e+00 1.03e-02  -1.7 2.19e+02    -  1.00e+00 1.00e+00f  1
iter    objective    inf_pr   inf_du lg(mu)  ||d||  lg(rg) alpha_du alpha_pr  ls
  50  1.1222377e+02 0.00e+00 8.04e+01  -3.8 1.77e+01    -  1.00e+00 1.00e+00f  1
  51  1.1222259e+02 0.00e+00 2.22e+00  -3.8 7.75e+02    -  1.00e+00 1.00e+00f  1
  52  1.1222258e+02 0.00e+00 2.19e-02  -3.8 1.76e-04   2.1 1.00e+00 1.00e+00f  1
  53  1.1222248e+02 0.00e+00 2.92e+01  -3.8 6.93e+03    -  1.00e+00 1.00e+00f  1
  54  1.1222235e+02 0.00e+00 1.72e-01  -3.8 3.87e+02    -  1.00e+00 1.00e+00f  1
  55  1.1222235e+02 0.00e+00 4.21e+00  -3.8 3.12e+04    -  1.00e+00 1.25e-01f  4
  56  1.1222234e+02 0.00e+00 7.15e-01  -3.8 9.41e+02    -  1.00e+00 1.00e+00f  1
  57  1.1222234e+02 0.00e+00 2.96e+00  -3.8 3.05e+03    -  1.00e+00 1.00e+00f  1
  58  1.1222234e+02 0.00e+00 1.38e-01  -3.8 6.31e+02    -  1.00e+00 1.00e+00f  1
  59  1.1222234e+02 0.00e+00 7.58e-01  -3.8 5.39e+03    -  1.00e+00 2.50e-01f  3
iter    objective    inf_pr   inf_du lg(mu)  ||d||  lg(rg) alpha_du alpha_pr  ls
  60  1.1222233e+02 0.00e+00 8.75e-01  -3.8 1.53e+03    -  1.00e+00 1.00e+00f  1
  61  1.1222233e+02 0.00e+00 4.26e-01  -3.8 1.05e+03    -  1.00e+00 1.00e+00f  1
  62  1.1222233e+02 0.00e+00 8.02e-01  -3.8 1.42e+03    -  1.00e+00 1.00e+00f  1
  63  1.1222233e+02 0.00e+00 1.36e-01  -3.8 5.72e+02    -  1.00e+00 1.00e+00f  1
  64  1.1222233e+02 0.00e+00 7.67e-01  -3.8 1.35e+03    -  1.00e+00 1.00e+00f  1
  65  1.1222233e+02 0.00e+00 1.35e-02  -3.8 1.76e+02    -  1.00e+00 1.00e+00f  1
  66  1.1222233e+02 0.00e+00 1.77e-01  -3.8 6.38e+02    -  1.00e+00 1.00e+00f  1
  67  1.1222233e+02 0.00e+00 1.62e-04  -3.8 1.93e+01    -  1.00e+00 1.00e+00f  1
  68  1.1222233e+02 0.00e+00 4.87e+00  -5.7 2.65e+04    -  9.87e-01 1.25e-01f  4
  69  1.1222232e+02 0.00e+00 5.58e-01  -5.7 1.10e+03    -  1.00e+00 1.00e+00f  1
iter    objective    inf_pr   inf_du lg(mu)  ||d||  lg(rg) alpha_du alpha_pr  ls
  70  1.1222232e+02 0.00e+00 3.86e+00  -5.7 1.04e+04    -  1.00e+00 2.50e-01f  3
  71  1.1222232e+02 0.00e+00 8.68e-01  -5.7 1.27e+03    -  1.00e+00 1.00e+00f  1
  72  1.1222232e+02 0.00e+00 5.63e+00  -5.7 5.98e+03    -  1.00e+00 5.00e-01f  2
  73  1.1222231e+02 0.00e+00 3.96e-01  -5.7 7.95e+02    -  1.00e+00 1.00e+00f  1
  74  1.1222231e+02 0.00e+00 2.45e+00  -5.7 1.44e+04    -  1.00e+00 1.25e-01f  4
  75  1.1222231e+02 0.00e+00 2.22e+00  -5.7 1.78e+03    -  1.00e+00 1.00e+00f  1
  76  1.1222230e+02 0.00e+00 2.73e+00  -5.7 1.91e+03    -  1.00e+00 1.00e+00f  1
  77  1.1222230e+02 0.00e+00 1.77e+00  -5.7 1.49e+03    -  1.00e+00 1.00e+00f  1
  78  1.1222230e+02 0.00e+00 4.41e+00  -5.7 2.28e+03    -  1.00e+00 1.00e+00f  1
  79  1.1222229e+02 0.00e+00 6.54e-01  -5.7 8.41e+02    -  1.00e+00 1.00e+00f  1
iter    objective    inf_pr   inf_du lg(mu)  ||d||  lg(rg) alpha_du alpha_pr  ls
  80  1.1222229e+02 0.00e+00 2.94e+00  -5.7 6.41e+03    -  1.00e+00 2.50e-01f  3
  81  1.1222229e+02 0.00e+00 1.51e+00  -5.7 1.21e+03    -  1.00e+00 1.00e+00f  1
  82  1.1222229e+02 0.00e+00 2.28e+00  -5.7 2.38e+03    -  1.00e+00 5.00e-01f  2
  83  1.1222228e+02 0.00e+00 2.56e+00  -5.7 1.50e+03    -  1.00e+00 1.00e+00f  1
  84  1.1222228e+02 0.00e+00 2.01e+00  -5.7 1.28e+03    -  1.00e+00 1.00e+00f  1
  85  1.1222228e+02 0.00e+00 3.35e+00  -5.7 1.60e+03    -  1.00e+00 1.00e+00f  1
  86  1.1222227e+02 0.00e+00 1.15e+00  -5.7 9.02e+02    -  1.00e+00 1.00e+00f  1
  87  1.1222227e+02 0.00e+00 3.33e+00  -5.7 2.73e+03    -  1.00e+00 5.00e-01f  2
  88  1.1222227e+02 0.00e+00 1.16e+00  -5.7 8.54e+02    -  1.00e+00 1.00e+00f  1
  89  1.1222227e+02 0.00e+00 3.27e+00  -5.7 2.54e+03    -  1.00e+00 5.00e-01f  2
iter    objective    inf_pr   inf_du lg(mu)  ||d||  lg(rg) alpha_du alpha_pr  ls
  90  1.1222226e+02 0.00e+00 1.20e+00  -5.7 8.20e+02    -  1.00e+00 1.00e+00f  1
  91  1.1222226e+02 0.00e+00 3.08e+00  -5.7 2.30e+03    -  1.00e+00 5.00e-01f  2
  92  1.1222226e+02 0.00e+00 1.36e+00  -5.7 8.22e+02    -  1.00e+00 1.00e+00f  1
  93  1.1222225e+02 0.00e+00 2.57e+00  -5.7 1.89e+03    -  1.00e+00 5.00e-01f  2
  94  1.1222225e+02 0.00e+00 1.98e+00  -5.7 9.37e+02    -  1.00e+00 1.00e+00f  1
  95  1.1222225e+02 0.00e+00 3.43e+00  -5.7 1.19e+03    -  1.00e+00 1.00e+00f  1
  96  1.1222224e+02 0.00e+00 1.09e+00  -5.7 6.47e+02    -  1.00e+00 1.00e+00f  1
  97  1.1222224e+02 0.00e+00 3.64e+00  -5.7 2.13e+03    -  1.00e+00 5.00e-01f  2
  98  1.1222224e+02 0.00e+00 9.62e-01  -5.7 5.71e+02    -  1.00e+00 1.00e+00f  1
  99  1.1222224e+02 0.00e+00 4.56e+00  -5.7 2.30e+03    -  1.00e+00 5.00e-01f  2
iter    objective    inf_pr   inf_du lg(mu)  ||d||  lg(rg) alpha_du alpha_pr  ls
 100  1.1222223e+02 0.00e+00 6.03e-01  -5.7 4.23e+02    -  1.00e+00 1.00e+00f  1
 101  1.1222223e+02 0.00e+00 3.44e+00  -5.7 3.70e+03    -  1.00e+00 2.50e-01f  3
 102  1.1222222e+02 0.00e+00 1.08e+00  -5.7 5.35e+02    -  1.00e+00 1.00e+00f  1
 103  1.1222222e+02 0.00e+00 3.67e+00  -5.7 1.78e+03    -  1.00e+00 5.00e-01f  2
 104  1.1222222e+02 0.00e+00 9.40e-01  -5.7 4.69e+02    -  1.00e+00 1.00e+00f  1
 105  1.1222222e+02 0.00e+00 4.76e+00  -5.7 1.96e+03    -  1.00e+00 5.00e-01f  2
 106  1.1222221e+02 0.00e+00 5.49e-01  -5.7 3.35e+02    -  1.00e+00 1.00e+00f  1
 107  1.1222221e+02 0.00e+00 4.17e+00  -5.7 3.44e+03    -  1.00e+00 2.50e-01f  3
 108  1.1222220e+02 0.00e+00 7.24e-01  -5.7 3.62e+02    -  1.00e+00 1.00e+00f  1
 109  1.1222220e+02 0.00e+00 2.47e+00  -5.7 2.32e+03    -  1.00e+00 2.50e-01f  3
iter    objective    inf_pr   inf_du lg(mu)  ||d||  lg(rg) alpha_du alpha_pr  ls
 110  1.1222220e+02 0.00e+00 2.14e+00  -5.7 5.90e+02    -  1.00e+00 1.00e+00f  1
 111  1.1222219e+02 0.00e+00 2.91e+00  -5.7 6.65e+02    -  1.00e+00 1.00e+00f  1
 112  1.1222219e+02 0.00e+00 1.53e+00  -5.7 4.64e+02    -  1.00e+00 1.00e+00f  1
 113  1.1222219e+02 0.00e+00 5.98e+00  -5.7 8.90e+02    -  1.00e+00 1.00e+00f  1
 114  1.1222218e+02 0.00e+00 3.38e-01  -5.7 2.03e+02    -  1.00e+00 1.00e+00f  1
 115  1.1222218e+02 0.00e+00 3.70e+00  -5.7 5.03e+03    -  1.00e+00 1.25e-01f  4
 116  1.1222217e+02 0.00e+00 9.25e-01  -5.7 3.14e+02    -  1.00e+00 1.00e+00f  1
 117  1.1222217e+02 0.00e+00 4.93e+00  -5.7 1.35e+03    -  1.00e+00 5.00e-01f  2
 118  1.1222217e+02 0.00e+00 5.10e-01  -5.7 2.18e+02    -  1.00e+00 1.00e+00f  1
 119  1.1222216e+02 0.00e+00 4.96e+00  -5.7 2.56e+03    -  1.00e+00 2.50e-01f  3
iter    objective    inf_pr   inf_du lg(mu)  ||d||  lg(rg) alpha_du alpha_pr  ls
 120  1.1222216e+02 0.00e+00 5.03e-01  -5.7 2.02e+02    -  1.00e+00 1.00e+00f  1
 121  1.1222216e+02 0.00e+00 5.13e+00  -5.7 2.44e+03    -  1.00e+00 2.50e-01f  3
 122  1.1222215e+02 0.00e+00 4.69e-01  -5.7 1.83e+02    -  1.00e+00 1.00e+00f  1
 123  1.1222215e+02 0.00e+00 1.82e+00  -5.7 2.50e+03    -  1.00e+00 1.25e-01f  4
 124  1.1222214e+02 0.00e+00 4.12e+00  -5.7 5.16e+02    -  1.00e+00 1.00e+00f  1
 125  1.1222214e+02 0.00e+00 7.40e-01  -5.7 2.09e+02    -  1.00e+00 1.00e+00f  1
 126  1.1222214e+02 0.00e+00 2.40e+00  -5.7 1.30e+03    -  1.00e+00 2.50e-01f  3
 127  1.1222213e+02 0.00e+00 2.27e+00  -5.7 3.47e+02    -  1.00e+00 1.00e+00f  1
 128  1.1222213e+02 0.00e+00 2.57e+00  -5.7 3.57e+02    -  1.00e+00 1.00e+00f  1
 129  1.1222212e+02 0.00e+00 1.98e+00  -5.7 3.02e+02    -  1.00e+00 1.00e+00f  1
iter    objective    inf_pr   inf_du lg(mu)  ||d||  lg(rg) alpha_du alpha_pr  ls
 130  1.1222212e+02 0.00e+00 3.43e+00  -5.7 3.84e+02    -  1.00e+00 1.00e+00f  1
 131  1.1222211e+02 0.00e+00 1.08e+00  -5.7 2.07e+02    -  1.00e+00 1.00e+00f  1
 132  1.1222211e+02 0.00e+00 3.69e+00  -5.7 6.88e+02    -  1.00e+00 5.00e-01f  2
 133  1.1222210e+02 0.00e+00 9.29e-01  -5.7 1.79e+02    -  1.00e+00 1.00e+00f  1
 134  1.1222210e+02 0.00e+00 4.91e+00  -5.7 7.65e+02    -  1.00e+00 5.00e-01f  2
 135  1.1222210e+02 0.00e+00 5.12e-01  -5.7 1.24e+02    -  1.00e+00 1.00e+00f  1
 136  1.1222209e+02 0.00e+00 4.99e+00  -5.7 1.46e+03    -  1.00e+00 2.50e-01f  3
 137  1.1222209e+02 0.00e+00 4.95e-01  -5.7 1.14e+02    -  1.00e+00 1.00e+00f  1
 138  1.1222209e+02 0.00e+00 5.39e+00  -5.7 1.42e+03    -  1.00e+00 2.50e-01f  3
 139  1.1222208e+02 0.00e+00 4.19e-01  -5.7 9.76e+01    -  1.00e+00 1.00e+00f  1
iter    objective    inf_pr   inf_du lg(mu)  ||d||  lg(rg) alpha_du alpha_pr  ls
 140  1.1222207e+02 0.00e+00 2.30e+00  -5.7 1.65e+03    -  1.00e+00 1.25e-01f  4
 141  1.1222207e+02 0.00e+00 2.49e+00  -5.7 2.25e+02    -  1.00e+00 1.00e+00f  1
 142  1.1222206e+02 0.00e+00 2.10e+00  -5.7 2.00e+02    -  1.00e+00 1.00e+00f  1
 143  1.1222206e+02 0.00e+00 3.01e+00  -5.7 2.30e+02    -  1.00e+00 1.00e+00f  1
 144  1.1222205e+02 0.00e+00 1.42e+00  -5.7 1.52e+02    -  1.00e+00 1.00e+00f  1
 145  1.1222205e+02 0.00e+00 2.44e+00  -5.7 3.27e+02    -  1.00e+00 5.00e-01f  2
 146  1.1222204e+02 0.00e+00 2.19e+00  -5.7 1.77e+02    -  1.00e+00 1.00e+00f  1
 147  1.1222204e+02 0.00e+00 2.76e+00  -5.7 1.92e+02    -  1.00e+00 1.00e+00f  1
 148  1.1222203e+02 0.00e+00 1.70e+00  -5.7 1.45e+02    -  1.00e+00 1.00e+00f  1
 149  1.1222203e+02 0.00e+00 4.75e+00  -5.7 2.34e+02    -  1.00e+00 1.00e+00f  1
iter    objective    inf_pr   inf_du lg(mu)  ||d||  lg(rg) alpha_du alpha_pr  ls
 150  1.1222202e+02 0.00e+00 5.46e-01  -5.7 7.55e+01    -  1.00e+00 1.00e+00f  1
 151  1.1222202e+02 0.00e+00 4.36e+00  -5.7 7.97e+02    -  1.00e+00 2.50e-01f  3
 152  1.1222201e+02 0.00e+00 6.53e-01  -5.7 7.70e+01    -  1.00e+00 1.00e+00f  1
 153  1.1222201e+02 0.00e+00 3.03e+00  -5.7 5.97e+02    -  1.00e+00 2.50e-01f  3
 154  1.1222200e+02 0.00e+00 1.39e+00  -5.7 1.06e+02    -  1.00e+00 1.00e+00f  1
 155  1.1222200e+02 0.00e+00 2.51e+00  -5.7 2.36e+02    -  1.00e+00 5.00e-01f  2
 156  1.1222199e+02 0.00e+00 2.07e+00  -5.7 1.21e+02    -  1.00e+00 1.00e+00f  1
 157  1.1222199e+02 0.00e+00 3.11e+00  -5.7 1.43e+02    -  1.00e+00 1.00e+00f  1
 158  1.1222198e+02 0.00e+00 1.32e+00  -5.7 8.94e+01    -  1.00e+00 1.00e+00f  1
 159  1.1222198e+02 0.00e+00 2.69e+00  -5.7 2.16e+02    -  1.00e+00 5.00e-01f  2
iter    objective    inf_pr   inf_du lg(mu)  ||d||  lg(rg) alpha_du alpha_pr  ls
 160  1.1222197e+02 0.00e+00 1.78e+00  -5.7 9.74e+01    -  1.00e+00 1.00e+00f  1
 161  1.1222197e+02 0.00e+00 4.28e+00  -5.7 1.46e+02    -  1.00e+00 1.00e+00f  1
 162  1.1222196e+02 0.00e+00 6.77e-01  -5.7 5.52e+01    -  1.00e+00 1.00e+00f  1
 163  1.1222195e+02 0.00e+00 2.84e+00  -5.7 4.02e+02    -  1.00e+00 2.50e-01f  3
 164  1.1222195e+02 0.00e+00 1.59e+00  -5.7 7.94e+01    -  1.00e+00 1.00e+00f  1
 165  1.1222195e+02 0.00e+00 5.51e+00  -5.7 1.43e+02    -  1.00e+00 1.00e+00f  1
 166  1.1222193e+02 0.00e+00 3.96e-01  -5.7 3.65e+01    -  1.00e+00 1.00e+00f  1
 167  1.1222193e+02 0.00e+00 2.72e+00  -5.7 7.00e+02    -  1.00e+00 1.25e-01f  4
 168  1.1222192e+02 0.00e+00 1.74e+00  -5.7 7.18e+01    -  1.00e+00 1.00e+00f  1
 169  1.1222192e+02 0.00e+00 4.48e+00  -5.7 1.11e+02    -  1.00e+00 1.00e+00f  1
iter    objective    inf_pr   inf_du lg(mu)  ||d||  lg(rg) alpha_du alpha_pr  ls
 170  1.1222191e+02 0.00e+00 6.11e-01  -5.7 3.90e+01    -  1.00e+00 1.00e+00f  1
 171  1.1222191e+02 0.00e+00 3.49e+00  -5.7 3.41e+02    -  1.00e+00 2.50e-01f  3
 172  1.1222190e+02 0.00e+00 1.03e+00  -5.7 4.74e+01    -  1.00e+00 1.00e+00f  1
 173  1.1222189e+02 0.00e+00 4.05e+00  -5.7 1.71e+02    -  1.00e+00 5.00e-01f  2
 174  1.1222189e+02 0.00e+00 7.56e-01  -5.7 3.76e+01    -  1.00e+00 1.00e+00f  1
 175  1.1222188e+02 0.00e+00 2.37e+00  -5.7 2.28e+02    -  1.00e+00 2.50e-01f  3
 176  1.1222187e+02 0.00e+00 2.32e+00  -5.7 6.22e+01    -  1.00e+00 1.00e+00f  1
 177  1.1222187e+02 0.00e+00 2.42e+00  -5.7 6.11e+01    -  1.00e+00 1.00e+00f  1
 178  1.1222186e+02 0.00e+00 2.21e+00  -5.7 5.61e+01    -  1.00e+00 1.00e+00f  1
 179  1.1222185e+02 0.00e+00 2.67e+00  -5.7 5.92e+01    -  1.00e+00 1.00e+00f  1
iter    objective    inf_pr   inf_du lg(mu)  ||d||  lg(rg) alpha_du alpha_pr  ls
 180  1.1222184e+02 0.00e+00 1.80e+00  -5.7 4.66e+01    -  1.00e+00 1.00e+00f  1
 181  1.1222184e+02 0.00e+00 4.15e+00  -5.7 6.83e+01    -  1.00e+00 1.00e+00f  1
 182  1.1222183e+02 0.00e+00 7.11e-01  -5.7 2.68e+01    -  1.00e+00 1.00e+00f  1
 183  1.1222182e+02 0.00e+00 2.63e+00  -5.7 1.81e+02    -  1.00e+00 2.50e-01f  3
 184  1.1222182e+02 0.00e+00 1.85e+00  -5.7 4.07e+01    -  1.00e+00 1.00e+00f  1
 185  1.1222181e+02 0.00e+00 3.89e+00  -5.7 5.68e+01    -  1.00e+00 1.00e+00f  1
 186  1.1222180e+02 0.00e+00 8.13e-01  -5.7 2.46e+01    -  1.00e+00 1.00e+00f  1
 187  1.1222180e+02 0.00e+00 2.13e+00  -5.7 1.32e+02    -  1.00e+00 2.50e-01f  3
 188  1.1222179e+02 0.00e+00 2.89e+00  -5.7 4.39e+01    -  1.00e+00 1.00e+00f  1
 189  1.1222178e+02 0.00e+00 1.50e+00  -5.7 3.02e+01    -  1.00e+00 1.00e+00f  1
iter    objective    inf_pr   inf_du lg(mu)  ||d||  lg(rg) alpha_du alpha_pr  ls
 190  1.1222177e+02 0.00e+00 2.26e+00  -5.7 5.89e+01    -  1.00e+00 5.00e-01f  2
 191  1.1222177e+02 0.00e+00 2.53e+00  -5.7 3.67e+01    -  1.00e+00 1.00e+00f  1
 192  1.1222176e+02 0.00e+00 1.99e+00  -5.7 3.12e+01    -  1.00e+00 1.00e+00f  1
 193  1.1222175e+02 0.00e+00 3.33e+00  -5.7 3.88e+01    -  1.00e+00 1.00e+00f  1
 194  1.1222174e+02 0.00e+00 1.12e+00  -5.7 2.14e+01    -  1.00e+00 1.00e+00f  1
 195  1.1222173e+02 0.00e+00 3.48e+00  -5.7 6.74e+01    -  1.00e+00 5.00e-01f  2
 196  1.1222172e+02 0.00e+00 1.01e+00  -5.7 1.89e+01    -  1.00e+00 1.00e+00f  1
 197  1.1222172e+02 0.00e+00 4.15e+00  -5.7 6.97e+01    -  1.00e+00 5.00e-01f  2
 198  1.1222171e+02 0.00e+00 7.03e-01  -5.7 1.45e+01    -  1.00e+00 1.00e+00f  1
 199  1.1222170e+02 0.00e+00 2.68e+00  -5.7 9.98e+01    -  1.00e+00 2.50e-01f  3
iter    objective    inf_pr   inf_du lg(mu)  ||d||  lg(rg) alpha_du alpha_pr  ls
 200  1.1222169e+02 0.00e+00 1.75e+00  -5.7 2.14e+01    -  1.00e+00 1.00e+00f  1
 201  1.1222169e+02 0.00e+00 4.37e+00  -5.7 3.26e+01    -  1.00e+00 1.00e+00f  1
 202  1.1222167e+02 0.00e+00 6.27e-01  -5.7 1.17e+01    -  1.00e+00 1.00e+00f  1
 203  1.1222167e+02 0.00e+00 3.34e+00  -5.7 9.82e+01    -  1.00e+00 2.50e-01f  3
 204  1.1222166e+02 0.00e+00 1.10e+00  -5.7 1.44e+01    -  1.00e+00 1.00e+00f  1
 205  1.1222165e+02 0.00e+00 3.58e+00  -5.7 4.66e+01    -  1.00e+00 5.00e-01f  2
 206  1.1222164e+02 0.00e+00 9.46e-01  -5.7 1.23e+01    -  1.00e+00 1.00e+00f  1
 207  1.1222163e+02 0.00e+00 4.74e+00  -5.7 5.11e+01    -  1.00e+00 5.00e-01f  2
 208  1.1222162e+02 0.00e+00 5.24e-01  -5.7 8.44e+00    -  1.00e+00 1.00e+00f  1
 209  1.1222162e+02 0.00e+00 5.00e+00  -5.7 9.82e+01    -  1.00e+00 2.50e-01f  3
iter    objective    inf_pr   inf_du lg(mu)  ||d||  lg(rg) alpha_du alpha_pr  ls
 210  1.1222160e+02 0.00e+00 4.66e-01  -5.7 7.32e+00    -  1.00e+00 1.00e+00f  1
 211  1.1222159e+02 0.00e+00 1.99e+00  -5.7 1.07e+02    -  1.00e+00 1.25e-01f  4
 212  1.1222158e+02 0.00e+00 3.27e+00  -5.7 1.83e+01    -  1.00e+00 1.00e+00f  1
 213  1.1222157e+02 0.00e+00 1.14e+00  -5.7 1.03e+01    -  1.00e+00 1.00e+00f  1
 214  1.1222156e+02 0.00e+00 3.34e+00  -5.7 3.12e+01    -  1.00e+00 5.00e-01f  2
 215  1.1222155e+02 0.00e+00 1.08e+00  -5.7 9.24e+00    -  1.00e+00 1.00e+00f  1
 216  1.1222154e+02 0.00e+00 3.64e+00  -5.7 3.05e+01    -  1.00e+00 5.00e-01f  2
 217  1.1222153e+02 0.00e+00 8.99e-01  -5.7 7.76e+00    -  1.00e+00 1.00e+00f  1
 218  1.1222153e+02 0.00e+00 5.22e+00  -5.7 3.49e+01    -  1.00e+00 5.00e-01f  2
 219  1.1222151e+02 0.00e+00 4.18e-01  -5.7 4.85e+00    -  1.00e+00 1.00e+00f  1
iter    objective    inf_pr   inf_du lg(mu)  ||d||  lg(rg) alpha_du alpha_pr  ls
 220  1.1222150e+02 0.00e+00 2.56e+00  -5.7 8.75e+01    -  1.00e+00 1.25e-01f  4
 221  1.1222149e+02 0.00e+00 1.87e+00  -5.7 9.59e+00    -  1.00e+00 1.00e+00f  1
 222  1.1222148e+02 0.00e+00 3.65e+00  -5.7 1.29e+01    -  1.00e+00 1.00e+00f  1
 223  1.1222146e+02 0.00e+00 8.83e-01  -5.7 5.97e+00    -  1.00e+00 1.00e+00f  1
 224  1.1222146e+02 0.00e+00 5.40e+00  -5.7 2.76e+01    -  1.00e+00 5.00e-01f  2
 225  1.1222144e+02 0.00e+00 3.83e-01  -5.7 3.60e+00    -  1.00e+00 1.00e+00f  1
 226  1.1222143e+02 0.00e+00 3.24e+00  -5.7 7.79e+01    -  1.00e+00 1.25e-01f  4
 227  1.1222141e+02 0.00e+00 1.13e+00  -5.7 5.71e+00    -  1.00e+00 1.00e+00f  1
 228  1.1222140e+02 0.00e+00 3.33e+00  -5.7 1.74e+01    -  1.00e+00 5.00e-01f  2
 229  1.1222139e+02 0.00e+00 1.06e+00  -5.7 5.10e+00    -  1.00e+00 1.00e+00f  1
iter    objective    inf_pr   inf_du lg(mu)  ||d||  lg(rg) alpha_du alpha_pr  ls
 230  1.1222138e+02 0.00e+00 3.73e+00  -5.7 1.73e+01    -  1.00e+00 5.00e-01f  2
 231  1.1222136e+02 0.00e+00 8.34e-01  -5.7 4.15e+00    -  1.00e+00 1.00e+00f  1
 232  1.1222135e+02 0.00e+00 2.02e+00  -5.7 2.11e+01    -  1.00e+00 2.50e-01f  3
 233  1.1222134e+02 0.00e+00 3.04e+00  -5.7 7.44e+00    -  1.00e+00 1.00e+00f  1
 234  1.1222132e+02 0.00e+00 1.27e+00  -5.7 4.55e+00    -  1.00e+00 1.00e+00f  1
 235  1.1222132e+02 0.00e+00 2.73e+00  -5.7 1.14e+01    -  1.00e+00 5.00e-01f  2
 236  1.1222130e+02 0.00e+00 1.59e+00  -5.7 4.70e+00    -  1.00e+00 1.00e+00f  1
 237  1.1222129e+02 0.00e+00 5.13e+00  -5.7 8.12e+00    -  1.00e+00 1.00e+00f  1
 238  1.1222127e+02 0.00e+00 4.16e-01  -5.7 2.16e+00    -  1.00e+00 1.00e+00f  1
 239  1.1222126e+02 0.00e+00 2.65e+00  -5.7 3.99e+01    -  1.00e+00 1.25e-01f  4
iter    objective    inf_pr   inf_du lg(mu)  ||d||  lg(rg) alpha_du alpha_pr  ls
 240  1.1222124e+02 0.00e+00 1.68e+00  -5.7 4.03e+00    -  1.00e+00 1.00e+00f  1
 241  1.1222123e+02 0.00e+00 4.50e+00  -5.7 6.35e+00    -  1.00e+00 1.00e+00f  1
 242  1.1222121e+02 0.00e+00 5.46e-01  -5.7 2.07e+00    -  1.00e+00 1.00e+00f  1
 243  1.1222120e+02 0.00e+00 4.57e+00  -5.7 2.24e+01    -  1.00e+00 2.50e-01f  3
 244  1.1222117e+02 0.00e+00 5.26e-01  -5.7 1.85e+00    -  1.00e+00 1.00e+00f  1
 245  1.1222117e+02 0.00e+00 5.01e+00  -5.7 2.16e+01    -  1.00e+00 2.50e-01f  3
 246  1.1222114e+02 0.00e+00 4.29e-01  -5.7 1.52e+00    -  1.00e+00 1.00e+00f  1
 247  1.1222113e+02 0.00e+00 2.48e+00  -5.7 2.67e+01    -  1.00e+00 1.25e-01f  4
 248  1.1222111e+02 0.00e+00 1.90e+00  -5.7 2.98e+00    -  1.00e+00 1.00e+00f  1
 249  1.1222109e+02 0.00e+00 3.36e+00  -5.7 3.81e+00    -  1.00e+00 1.00e+00f  1
iter    objective    inf_pr   inf_du lg(mu)  ||d||  lg(rg) alpha_du alpha_pr  ls
 250  1.1222107e+02 0.00e+00 9.87e-01  -5.7 1.94e+00    -  1.00e+00 1.00e+00f  1
 251  1.1222106e+02 0.00e+00 4.14e+00  -5.7 7.27e+00    -  1.00e+00 5.00e-01f  2
 252  1.1222103e+02 0.00e+00 6.32e-01  -5.7 1.41e+00    -  1.00e+00 1.00e+00f  1
 253  1.1222102e+02 0.00e+00 3.24e+00  -5.7 1.16e+01    -  1.00e+00 2.50e-01f  3
 254  1.1222100e+02 0.00e+00 1.05e+00  -5.7 1.67e+00    -  1.00e+00 1.00e+00f  1
 255  1.1222099e+02 0.00e+00 3.63e+00  -5.7 5.60e+00    -  1.00e+00 5.00e-01f  2
 256  1.1222096e+02 0.00e+00 8.24e-01  -5.7 1.35e+00    -  1.00e+00 1.00e+00f  1
 257  1.1222094e+02 0.00e+00 2.00e+00  -5.7 6.87e+00    -  1.00e+00 2.50e-01f  3
 258  1.1222092e+02 0.00e+00 2.91e+00  -5.7 2.37e+00    -  1.00e+00 1.00e+00f  1
 259  1.1222090e+02 0.00e+00 1.30e+00  -5.7 1.49e+00    -  1.00e+00 1.00e+00f  1
iter    objective    inf_pr   inf_du lg(mu)  ||d||  lg(rg) alpha_du alpha_pr  ls
 260  1.1222088e+02 0.00e+00 2.52e+00  -5.7 3.47e+00    -  1.00e+00 5.00e-01f  2
 261  1.1222086e+02 0.00e+00 1.75e+00  -5.7 1.59e+00    -  1.00e+00 1.00e+00f  1
 262  1.1222084e+02 0.00e+00 3.84e+00  -5.7 2.25e+00    -  1.00e+00 1.00e+00f  1
 263  1.1222081e+02 0.00e+00 7.08e-01  -5.7 8.98e-01    -  1.00e+00 1.00e+00f  1
 264  1.1222079e+02 0.00e+00 2.54e+00  -5.7 5.97e+00    -  1.00e+00 2.50e-01f  3
 265  1.1222077e+02 0.00e+00 1.69e+00  -5.7 1.28e+00    -  1.00e+00 1.00e+00f  1
 266  1.1222075e+02 0.00e+00 4.09e+00  -5.7 1.92e+00    -  1.00e+00 1.00e+00f  1
 267  1.1222071e+02 0.00e+00 6.10e-01  -5.7 6.84e-01    -  1.00e+00 1.00e+00f  1
 268  1.1222070e+02 0.00e+00 3.45e+00  -5.7 5.99e+00    -  1.00e+00 2.50e-01f  3
 269  1.1222066e+02 0.00e+00 8.68e-01  -5.7 7.43e-01    -  1.00e+00 1.00e+00f  1
iter    objective    inf_pr   inf_du lg(mu)  ||d||  lg(rg) alpha_du alpha_pr  ls
 270  1.1222065e+02 0.00e+00 1.83e+00  -5.7 3.42e+00    -  1.00e+00 2.50e-01f  3
 271  1.1222062e+02 0.00e+00 3.37e+00  -5.7 1.37e+00    -  1.00e+00 1.00e+00f  1
 272  1.1222059e+02 0.00e+00 9.00e-01  -5.7 6.60e-01    -  1.00e+00 1.00e+00f  1
 273  1.1222058e+02 0.00e+00 4.77e+00  -5.7 2.83e+00    -  1.00e+00 5.00e-01f  2
 274  1.1222053e+02 0.00e+00 4.25e-01  -5.7 4.06e-01    -  1.00e+00 1.00e+00f  1
 275  1.1222051e+02 0.00e+00 2.62e+00  -5.7 7.43e+00    -  1.00e+00 1.25e-01f  4
 276  1.1222047e+02 0.00e+00 1.51e+00  -5.7 7.03e-01    -  1.00e+00 1.00e+00f  1
 277  1.1222047e+02 0.00e+00 5.07e+00  -5.7 1.24e+00    -  1.00e+00 1.00e+00f  1
 278  1.1222040e+02 0.00e+00 3.60e-01  -5.7 3.04e-01    -  1.00e+00 1.00e+00f  1
 279  1.1222039e+02 0.00e+00 4.56e+00  -5.7 8.26e+00    -  1.00e+00 1.25e-01f  4
iter    objective    inf_pr   inf_du lg(mu)  ||d||  lg(rg) alpha_du alpha_pr  ls
 280  1.1222033e+02 0.00e+00 4.56e-01  -5.7 3.03e-01    -  1.00e+00 1.00e+00f  1
 281  1.1222031e+02 0.00e+00 2.21e+00  -5.7 4.88e+00    -  1.00e+00 1.25e-01f  4
 282  1.1222027e+02 0.00e+00 2.10e+00  -5.7 6.10e-01    -  1.00e+00 1.00e+00f  1
 283  1.1222023e+02 0.00e+00 2.33e+00  -5.7 6.10e-01    -  1.00e+00 1.00e+00f  1
 284  1.1222019e+02 0.00e+00 1.85e+00  -5.7 5.13e-01    -  1.00e+00 1.00e+00f  1
 285  1.1222015e+02 0.00e+00 3.05e+00  -5.7 6.26e-01    -  1.00e+00 1.00e+00f  1
 286  1.1222010e+02 0.00e+00 1.03e+00  -5.7 3.37e-01    -  1.00e+00 1.00e+00f  1
 287  1.1222008e+02 0.00e+00 3.42e+00  -5.7 1.11e+00    -  1.00e+00 5.00e-01f  2
 288  1.1222002e+02 0.00e+00 7.97e-01  -5.7 2.64e-01    -  1.00e+00 1.00e+00f  1
 289  1.1221999e+02 0.00e+00 1.98e+00  -5.7 1.38e+00    -  1.00e+00 2.50e-01f  3
iter    objective    inf_pr   inf_du lg(mu)  ||d||  lg(rg) alpha_du alpha_pr  ls
 290  1.1221995e+02 0.00e+00 2.55e+00  -5.7 4.40e-01    -  1.00e+00 1.00e+00f  1
 291  1.1221989e+02 0.00e+00 1.46e+00  -5.7 3.11e-01    -  1.00e+00 1.00e+00f  1
 292  1.1221989e+02 0.00e+00 5.02e+00  -5.7 5.54e-01    -  1.00e+00 1.00e+00f  1
 293  1.1221978e+02 0.00e+00 3.32e-01  -5.7 1.29e-01    -  1.00e+00 1.00e+00f  1
 294  1.1221974e+02 0.00e+00 2.06e+00  -5.7 4.80e+00    -  1.00e+00 6.15e-02f  5
 295  1.1221969e+02 0.00e+00 2.27e+00  -5.7 3.10e-01    -  1.00e+00 1.00e+00f  1
 296  1.1221963e+02 0.00e+00 1.81e+00  -5.7 2.60e-01    -  1.00e+00 1.00e+00f  1
 297  1.1221957e+02 0.00e+00 2.96e+00  -5.7 3.17e-01    -  1.00e+00 1.00e+00f  1
 298  1.1221950e+02 0.00e+00 1.01e+00  -5.7 1.69e-01    -  1.00e+00 1.00e+00f  1
 299  1.1221946e+02 0.00e+00 3.40e+00  -5.7 5.64e-01    -  1.00e+00 5.00e-01f  2
iter    objective    inf_pr   inf_du lg(mu)  ||d||  lg(rg) alpha_du alpha_pr  ls
 300  1.1221937e+02 0.00e+00 7.44e-01  -5.7 1.28e-01    -  1.00e+00 1.00e+00f  1
 301  1.1221933e+02 0.00e+00 2.18e+00  -5.7 7.59e-01    -  1.00e+00 2.50e-01f  3
 302  1.1221925e+02 0.00e+00 1.91e+00  -5.7 1.90e-01    -  1.00e+00 1.00e+00f  1
 303  1.1221918e+02 0.00e+00 2.53e+00  -5.7 2.07e-01    -  1.00e+00 1.00e+00f  1
 304  1.1221909e+02 0.00e+00 1.36e+00  -5.7 1.40e-01    -  1.00e+00 1.00e+00f  1
 305  1.1221903e+02 0.00e+00 2.04e+00  -5.7 2.71e-01    -  1.00e+00 5.00e-01f  2
 306  1.1221894e+02 0.00e+00 2.14e+00  -5.7 1.59e-01    -  1.00e+00 1.00e+00f  1
 307  1.1221884e+02 0.00e+00 1.91e+00  -5.7 1.40e-01    -  1.00e+00 1.00e+00f  1
 308  1.1221875e+02 0.00e+00 2.45e+00  -5.7 1.50e-01    -  1.00e+00 1.00e+00f  1
 309  1.1221863e+02 0.00e+00 1.40e+00  -5.7 1.04e-01    -  1.00e+00 1.00e+00f  1
iter    objective    inf_pr   inf_du lg(mu)  ||d||  lg(rg) alpha_du alpha_pr  ls
 310  1.1221856e+02 0.00e+00 1.93e+00  -5.7 1.89e-01    -  1.00e+00 5.00e-01f  2
 311  1.1221845e+02 0.00e+00 2.33e+00  -5.7 1.22e-01    -  1.00e+00 1.00e+00f  1
 312  1.1221831e+02 0.00e+00 1.54e+00  -5.7 9.08e-02    -  1.00e+00 1.00e+00f  1
 313  1.1221825e+02 0.00e+00 3.90e+00  -5.7 1.40e-01    -  1.00e+00 1.00e+00f  1
 314  1.1221803e+02 0.00e+00 5.05e-01  -5.7 4.28e-02    -  1.00e+00 1.00e+00f  1
 315  1.1221793e+02 0.00e+00 2.22e+00  -5.7 6.76e-01    -  1.00e+00 1.25e-01f  4
 316  1.1221776e+02 0.00e+00 1.69e+00  -5.7 7.23e-02    -  1.00e+00 1.00e+00f  1
 317  1.1221762e+02 0.00e+00 3.10e+00  -5.7 9.43e-02    -  1.00e+00 1.00e+00f  1
 318  1.1221737e+02 0.00e+00 8.29e-01  -5.7 4.21e-02    -  1.00e+00 1.00e+00f  1
 319  1.1221724e+02 0.00e+00 1.98e+00  -5.7 2.25e-01    -  1.00e+00 2.50e-01f  3
iter    objective    inf_pr   inf_du lg(mu)  ||d||  lg(rg) alpha_du alpha_pr  ls
 320  1.1221701e+02 0.00e+00 2.20e+00  -5.7 6.38e-02    -  1.00e+00 1.00e+00f  1
 321  1.1221674e+02 0.00e+00 1.77e+00  -5.7 5.23e-02    -  1.00e+00 1.00e+00f  1
 322  1.1221650e+02 0.00e+00 2.95e+00  -5.7 6.45e-02    -  1.00e+00 1.00e+00f  1
 323  1.1221609e+02 0.00e+00 1.00e+00  -5.7 3.15e-02    -  1.00e+00 1.00e+00f  1
 324  1.1221607e+02 0.00e+00 4.43e+00  -5.7 1.34e-01    -  1.00e+00 5.00e-01f  2
 325  1.1221524e+02 0.00e+00 4.81e-01  -5.7 1.64e-02    -  1.00e+00 1.00e+00f  1
 326  1.1221514e+02 0.00e+00 1.36e-01  -5.7 9.38e-04   1.6 1.00e+00 1.00e+00f  1
 327  1.1221489e+02 0.00e+00 8.43e-01  -5.7 2.82e-03   1.1 1.00e+00 1.00e+00f  1
 328  1.1221444e+02 0.00e+00 2.04e+00  -5.7 2.65e-01    -  1.00e+00 1.25e-01f  4
 329  1.1221370e+02 0.00e+00 3.50e+00  -5.7 4.91e-02    -  1.00e+00 1.00e+00f  1
iter    objective    inf_pr   inf_du lg(mu)  ||d||  lg(rg) alpha_du alpha_pr  ls
 330  1.1221190e+02 0.00e+00 1.47e+00  -5.7 2.10e-02    -  1.00e+00 1.00e+00f  1
 331  1.1221124e+02 0.00e+00 5.13e+00  -5.7 1.22e-01    -  1.00e+00 2.50e-01f  3
 332  1.1220336e+02 0.00e+00 2.18e+00  -5.7 8.93e-03    -  1.00e+00 1.00e+00f  1
 333  1.1218867e+02 0.00e+00 5.93e+00  -5.7 2.12e-02   1.6 1.00e+00 5.00e-01f  2
 334  1.1088414e+02 0.00e+00 1.67e+01  -5.7 3.18e-01    -  3.63e-01 1.00e+00f  1
 335  1.0971462e+02 0.00e+00 1.78e+01  -5.7 2.31e-02   2.9 1.00e+00 1.00e+00f  1
 336  1.0304641e+02 0.00e+00 3.49e+01  -5.7 9.61e-02   2.4 1.00e+00 1.00e+00f  1
 337  9.3876109e+01 0.00e+00 1.51e+01  -5.7 1.94e-01   1.9 1.00e+00 1.00e+00f  1
 338  7.8170829e+01 0.00e+00 2.16e+01  -5.7 3.25e+00    -  2.22e-01 2.50e-01f  3
 339  7.7745468e+01 0.00e+00 8.40e+00  -5.7 5.51e-01    -  1.00e+00 5.00e-01f  2
iter    objective    inf_pr   inf_du lg(mu)  ||d||  lg(rg) alpha_du alpha_pr  ls
 340  7.7561381e+01 0.00e+00 2.71e+00  -5.7 7.58e-02    -  1.00e+00 1.00e+00f  1
 341  7.7522000e+01 0.00e+00 3.66e-01  -5.7 1.16e-01    -  1.00e+00 1.00e+00f  1
 342  7.7516517e+01 0.00e+00 2.10e-02  -5.7 4.99e-02    -  1.00e+00 1.00e+00f  1
 343  7.7516348e+01 0.00e+00 2.83e-03  -5.7 1.41e-02    -  1.00e+00 1.00e+00f  1
 344  7.7516347e+01 0.00e+00 3.70e-06  -5.7 5.20e-04    -  1.00e+00 1.00e+00f  1
 345  7.7516347e+01 0.00e+00 2.23e-11  -8.6 9.30e-07    -  1.00e+00 1.00e+00f  1

Number of Iterations....: 345

                                   (scaled)                 (unscaled)
Objective...............:   3.5279462500473826e+01    7.7516347286225610e+01
Dual infeasibility......:   2.2277559864813278e-11    4.8948451727328727e-11
Constraint violation....:   0.0000000000000000e+00    0.0000000000000000e+00
Complementarity.........:   2.5068921397321736e-09    5.5081655994611161e-09
Overall NLP error.......:   2.5068921397321736e-09    5.5081655994611161e-09


Number of objective function evaluations             = 943
Number of objective gradient evaluations             = 346
Number of equality constraint evaluations            = 0
Number of inequality constraint evaluations          = 0
Number of equality constraint Jacobian evaluations   = 0
Number of inequality constraint Jacobian evaluations = 0
Number of Lagrangian Hessian evaluations             = 345
Total CPU secs in IPOPT (w/o function evaluations)   =      0.083
Total CPU secs in NLP function evaluations           =      0.043

EXIT: Optimal Solution Found.
Note: The following floating-point exceptions are signalling: IEEE_INVALID_FLAG IEEE_DIVIDE_BY_ZERO IEEE_UNDERFLOW_FLAG IEEE_DENORMAL

 ** SUBROUTINE CUTEST_csetup: Warning. The problem has no general constraints. 
 ** Other tools may be preferable ** 

************************ CUTEst statistics ************************


 Package used            :  IPOPT
 Problem                 :  KOEBHELB  
 # variables             =               3
 # constraints           =               0
 # objective functions   =        0.1290000E+04
 # objective gradients   =        0.3470000E+03
 # objective Hessians    =        0.3460000E+03
 # Hessian-vector prdct  =        0.0000000E+00
 # constraints functions =        0.0000000E+00
 # constraints gradients =        0.0000000E+00
 # constraints Hessians  =        0.0000000E+00
 Exit code               =               0
 Final f                 =   0.7751635E+02
 Set up time             =            0.00 seconds
 Solve time              =            0.39 seconds


******************************************************************

System Time =       0.1270000041 s.
